10J3M/DAT/10J3MNTR-13.dat
10 3
23.954 13.8131
29.7802 34.0571
27.8974 0.7851
26.2291 21.2885
20.7054 46.3851
22.6217 44.888
24.4241 46.6068
17.5601 34.2307
30.5418 40.3749
29.952 37.8882
80.0794