10J3M/SOL/10J3MNTR-13.sol
solution status: optimal solution found
objective value:                     73.2808971101617
x#1#1                                               1 	(obj:0)
x#2#1                               0.097048796069375 	(obj:0)
x#2#3                               0.902951203930625 	(obj:0)
x#3#1                               0.116389001932954 	(obj:0)
x#3#2                               0.883610998067046 	(obj:0)
x#5#2                                               1 	(obj:0)
x#6#1                                               1 	(obj:0)
x#7#3                                               1 	(obj:0)
x#8#2                               0.209400926456652 	(obj:0)
x#8#3                               0.159468484054873 	(obj:0)
x#9#2                               0.834863987625562 	(obj:0)
x#9#3                               0.165136012374438 	(obj:0)
x#10#1                                              1 	(obj:0)
z                                    73.2808971101617 	(obj:1)
